data/mps_files/q3/61_2.mps
NAME foo
ROWS
 N  OBJ
 E  allocateEach[1]
 E  allocateAllCash
 G  findWorstP[1,2]
 G  findWorstP[1,3]
 G  findWorstP[1,4]
 G  findWorstP[2,1]
 G  findWorstP[2,3]
 G  findWorstP[2,4]
 G  findWorstP[3,1]
 G  findWorstP[3,2]
 G  findWorstP[3,4]
 G  findWorstP[4,1]
 G  findWorstP[4,2]
 G  findWorstP[4,3]
COLUMNS
    z         OBJ       1
    z         findWorstP[1,2]  1
    z         findWorstP[1,3]  1
    z         findWorstP[1,4]  1
    z         findWorstP[2,1]  1
    z         findWorstP[2,3]  1
    z         findWorstP[2,4]  1
    z         findWorstP[3,1]  1
    z         findWorstP[3,2]  1
    z         findWorstP[3,4]  1
    z         findWorstP[4,1]  1
    z         findWorstP[4,2]  1
    z         findWorstP[4,3]  1
    cashProportion[1]  allocateAllCash  1
    cashProportion[1]  findWorstP[1,2]  0.503693754197448
    cashProportion[1]  findWorstP[1,3]  0.503693754197448
    cashProportion[1]  findWorstP[1,4]  0.503693754197448
    cashProportion[1]  findWorstP[2,1]  -3.3677593174674453e-01
    cashProportion[1]  findWorstP[3,1]  -5.6710775047258988e-01
    cashProportion[1]  findWorstP[4,1]  -4.0983606557377056e-01
    cashProportion[2]  allocateAllCash  1
    cashProportion[2]  findWorstP[1,2]  -0.503693754197448
    cashProportion[2]  findWorstP[2,1]  3.3677593174674453e-01
    cashProportion[2]  findWorstP[2,3]  3.3677593174674453e-01
    cashProportion[2]  findWorstP[2,4]  3.3677593174674453e-01
    cashProportion[2]  findWorstP[3,2]  -5.6710775047258988e-01
    cashProportion[2]  findWorstP[4,2]  -4.0983606557377056e-01
    cashProportion[3]  allocateAllCash  1
    cashProportion[3]  findWorstP[1,3]  -0.503693754197448
    cashProportion[3]  findWorstP[2,3]  -3.3677593174674453e-01
    cashProportion[3]  findWorstP[3,1]  5.6710775047258988e-01
    cashProportion[3]  findWorstP[3,2]  5.6710775047258988e-01
    cashProportion[3]  findWorstP[3,4]  5.6710775047258988e-01
    cashProportion[3]  findWorstP[4,3]  -4.0983606557377056e-01
    cashProportion[4]  allocateAllCash  1
    cashProportion[4]  findWorstP[1,4]  -0.503693754197448
    cashProportion[4]  findWorstP[2,4]  -3.3677593174674453e-01
    cashProportion[4]  findWorstP[3,4]  -5.6710775047258988e-01
    cashProportion[4]  findWorstP[4,1]  4.0983606557377056e-01
    cashProportion[4]  findWorstP[4,2]  4.0983606557377056e-01
    cashProportion[4]  findWorstP[4,3]  4.0983606557377056e-01
    MARKER    'MARKER'                 'INTORG'
    x[1,1]    allocateEach[1]  1
    x[1,1]    findWorstP[1,2]  0.496306245802552
    x[1,1]    findWorstP[1,3]  0.496306245802552
    x[1,1]    findWorstP[1,4]  0.496306245802552
    x[1,1]    findWorstP[2,1]  -6.6322406825325542e-01
    x[1,1]    findWorstP[3,1]  -4.3289224952741018e-01
    x[1,1]    findWorstP[4,1]  -5.9016393442622950e-01
    x[2,1]    allocateEach[1]  1
    x[2,1]    findWorstP[1,2]  -0.496306245802552
    x[2,1]    findWorstP[2,1]  6.6322406825325542e-01
    x[2,1]    findWorstP[2,3]  6.6322406825325542e-01
    x[2,1]    findWorstP[2,4]  6.6322406825325542e-01
    x[2,1]    findWorstP[3,2]  -4.3289224952741018e-01
    x[2,1]    findWorstP[4,2]  -5.9016393442622950e-01
    x[3,1]    allocateEach[1]  1
    x[3,1]    findWorstP[1,3]  -0.496306245802552
    x[3,1]    findWorstP[2,3]  -6.6322406825325542e-01
    x[3,1]    findWorstP[3,1]  4.3289224952741018e-01
    x[3,1]    findWorstP[3,2]  4.3289224952741018e-01
    x[3,1]    findWorstP[3,4]  4.3289224952741018e-01
    x[3,1]    findWorstP[4,3]  -5.9016393442622950e-01
    x[4,1]    allocateEach[1]  1
    x[4,1]    findWorstP[1,4]  -0.496306245802552
    x[4,1]    findWorstP[2,4]  -6.6322406825325542e-01
    x[4,1]    findWorstP[3,4]  -4.3289224952741018e-01
    x[4,1]    findWorstP[4,1]  5.9016393442622950e-01
    x[4,1]    findWorstP[4,2]  5.9016393442622950e-01
    x[4,1]    findWorstP[4,3]  5.9016393442622950e-01
    MARKER    'MARKER'                 'INTEND'
RHS
    RHS1      allocateEach[1]  1
    RHS1      allocateAllCash  1
BOUNDS
 UP BND1      z         1
 MI BND1      cashProportion[1]
 UP BND1      cashProportion[1]  1
 MI BND1      cashProportion[2]
 UP BND1      cashProportion[2]  1
 MI BND1      cashProportion[3]
 UP BND1      cashProportion[3]  1
 MI BND1      cashProportion[4]
 UP BND1      cashProportion[4]  1
 BV BND1      x[1,1]  
 BV BND1      x[2,1]  
 BV BND1      x[3,1]  
 BV BND1      x[4,1]  
ENDATA
